p cnf 12 50 
-6 -1 -3 0
9 -8 -10 0
12 9 -6 0
3 8 -5 0
-8 4 -3 0
12 -1 2 0
10 -4 -2 0
-6 -7 12 0
1 11 -9 0
-11 -10 4 0
-2 -8 -3 0
2 -9 -6 0
6 9 1 0
-12 2 -1 0
2 -3 7 0
2 -7 -9 0
3 5 11 0
8 -9 -3 0
-6 12 -8 0
11 10 -12 0
-2 12 -5 0
-6 10 -9 0
-12 2 8 0
5 -11 -3 0
1 -6 -11 0
3 9 4 0
11 -5 -3 0
6 11 12 0
-9 10 -5 0
-11 3 -7 0
3 -11 2 0
11 9 -6 0
7 5 -10 0
-4 -11 -3 0
8 3 2 0
4 11 9 0
10 -12 9 0
1 -5 -7 0
-3 7 -1 0
10 -9 -4 0
-9 1 12 0
1 5 -3 0
-2 -7 6 0
-10 -6 -11 0
12 10 9 0
-7 -5 6 0
-2 -9 -1 0
9 -4 -5 0
5 11 -10 0
-7 -9 -2 0
